c solution = True
p edge 63 62
e 2 1 1
e 3 1 1
e 6 3 1
e 7 3 1
e 14 7 1
e 15 7 1
e 30 15 1
e 31 15 1
e 62 31 1
e 63 31 1
e 60 30 1
e 61 30 1
e 28 14 1
e 29 14 1
e 58 29 1
e 59 29 1
e 56 28 1
e 57 28 1
e 12 6 1
e 13 6 1
e 26 13 1
e 27 13 1
e 54 27 1
e 55 27 1
e 52 26 1
e 53 26 1
e 24 12 1
e 25 12 1
e 50 25 1
e 51 25 1
e 48 24 1
e 49 24 1
e 4 2 1
e 5 2 1
e 10 5 1
e 11 5 1
e 22 11 1
e 23 11 1
e 46 23 1
e 47 23 1
e 44 22 1
e 45 22 1
e 20 10 1
e 21 10 1
e 42 21 1
e 43 21 1
e 40 20 1
e 41 20 1
e 8 4 1
e 9 4 1
e 18 9 1
e 19 9 1
e 38 19 1
e 39 19 1
e 36 18 1
e 37 18 1
e 16 8 1
e 17 8 1
e 34 17 1
e 35 17 1
e 32 16 1
e 33 16 1
